Ti2C                                    
   1.0000000000000000     
     3.0205870032524178   -0.0000000620118788    0.0000000000000018
     1.5102910091956019    2.6159054926009460   -0.0000000000000013
     0.0000000000000077   -0.0000000000000298   30.2684511718906677
   Ti   C 
     2     1
Direct
  0.0000003121238592  0.0000000648305942  0.0979877175420295
  0.6666668530000024  0.6666667033000024  0.1747414844579713
  0.3333335825999981  0.3333333841000012  0.1363646009999968

  0.00000000E+00  0.00000000E+00  0.00000000E+00
  0.00000000E+00  0.00000000E+00  0.00000000E+00
  0.00000000E+00  0.00000000E+00  0.00000000E+00
